
1.0
  -1.5661764466262562 -1.4139412310584465 -1.323555663404401
  -1.566180780145611 1.3235527973096728 1.4139463956193403
  1.502263629816865 1.4118362739571175 -1.4118403321653632
 Fe 
1 
direct
   -0.0000015239884472  -0.0000000388261095  -0.0000010197937804
