
1.0
  -1.492035102325494 -1.4258323608812788 -1.3865465691029784
  -1.4920410619742432 1.3865430330683612 1.4258389272139713
  1.4642554005259265 1.4249267992565222 -1.4249326255881183
 Fe 
1 
direct
   -0.0000020594438475  -0.0000000524677156  -0.0000013780997032
