
1.0
  -1.6118018892728792 -1.4066236127059344 -1.2847920291283534
  -1.6118052220972214 1.2847895753043261 1.406627914638029
  1.5256533093805198 1.4037805660805605 -1.4037835362128985
 Fe 
1 
direct
   -0.0000011944774316  -0.0000000304312750  -0.0000007992978278
