
1.0
  -1.480628741663838 -1.427661765469407 -1.3962374776719904
  -1.4806349514863406 1.396233838569698 1.4276685474592992
  1.4584079806350128 1.4269407262256617 -1.4269468245762345
 Fe 
1 
direct
   -0.0000021418216014  -0.0000000545664242  -0.0000014332236913
