
1.0
  -1.6403177909270186 -1.4020501012356144 -1.2605647577058237
  -1.6403204983169783 1.2605625615509846 1.402053864024709
  1.540271859107804 1.3987457486577124 -1.3987480387426081
 Fe 
1 
direct
   -0.0000009885330468  -0.0000000251845035  -0.0000006614878575
