
1.0
  -1.5775828072879121 -1.4121118264703185 -1.313864754835389
  -1.5775868906335135 1.3138619918083363 1.4121167753740125
  1.508111049707779 1.409822346987978 -1.409826133177247
 Fe 
1 
direct
   -0.0000014416106933  -0.0000000367274009  -0.0000009646697922
