
1.0
  -1.628911430265363 -1.4038795058237423 -1.2702556662748354
  -1.628914387829076 1.2702533670523213 1.403883484270037
  1.5344244392168906 1.4007596756268514 -1.4007622377307243
 Fe 
1 
direct
   -0.0000010709108007  -0.0000000272832121  -0.0000007166118457
