
1.0
  -1.668833692581158 -1.3974765897652943 -1.2363374862832937
  -1.6688357745367353 1.236335547797643 1.3974798134113895
  1.5548904088350883 1.3937109312348646 -1.3937125412723177
 Fe 
1 
direct
   -0.0000007825886621  -0.0000000199377319  -0.0000005236778872
