
1.0
  -1.571879626957084 -1.4130265287643826 -1.318710209119895
  -1.5718838353895621 1.3187073945590047 1.4130315854966764
  1.5051873397623219 1.4108293104725478 -1.4108332326713051
 Fe 
1 
direct
   -0.0000014827995702  -0.0000000377767552  -0.0000009922317863
