
1.0
  -1.6745368729119858 -1.3965618874712302 -1.2314920319987879
  -1.6745388297806867 1.2314901450469746 1.3965650032887256
  1.5578141187805452 1.3927039677502948 -1.3927054417782596
 Fe 
1 
direct
   -0.0000007413997851  -0.0000000188883776  -0.0000004961158931
