
1.0
  -1.5604732662954282 -1.4148559333525108 -1.3284011176889068
  -1.5604777249016595 1.3283982000603411 1.414861205742004
  1.4993399198714086 1.412843237441687 -1.4128474316594213
 Fe 
1 
direct
   -0.0000015651773241  -0.0000000398754638  -0.0000010473557744
