
1.0
  -1.5889891679495676 -1.4102824218821906 -1.304173846266377
  -1.5889930011214162 1.3041711863069996 1.4102871551286844
  1.5139584695986925 1.407808420018839 -1.4078119341891309
 Fe 
1 
direct
   -0.0000013592329394  -0.0000000346286923  -0.0000009095458041
