
1.0
  -1.5148478236488052 -1.4221735517050227 -1.3671647519649546
  -1.5148532829500485 1.3671614220656878 1.4221796867233156
  1.4759502403077536 1.420898945318244 -1.420904227611886
 Fe 
1 
direct
   -0.0000018946883397  -0.0000000482702983  -0.0000012678517269
