
1.0
  -1.531957364641289 -1.4194294448228306 -1.3526283891114366
  -1.5319624486819026 1.352625213813683 1.4194352563553239
  1.4847213701441244 1.4178780548645353 -1.4178829291297117
 Fe 
1 
direct
   -0.0000017711217089  -0.0000000451222354  -0.0000011851657447
