
1.0
  -1.623208249934535 -1.4047942081178064 -1.2751011205593414
  -1.6232113325851245 1.2750987698029896 1.4047982943927009
  1.5315007292714335 1.4017666391114212 -1.4017693372247824
 Fe 
1 
direct
   -0.0000011120996777  -0.0000000283325664  -0.0000007441738397
