
1.0
  -1.720162315558609 -1.389244269118718 -1.1927283977227403
  -1.7201632717322977 1.1927269230416278 1.3892465223074142
  1.5812037983442 1.3846482598737377 -1.3846486458257952
 Fe 
1 
direct
   -0.0000004118887695  -0.0000000104935431  -0.0000002756199406
