
1.0
  -1.7657877582052321 -1.3819266507662058 -1.1539647634466925
  -1.7657877136839084 1.153963701036281 1.3819280413261028
  1.6045934779078548 1.3765925519971807 -1.3765918498733303
 Fe 
1 
direct
   -0.0000000823777539  -0.0000000020987086  -0.0000000551239881
