
1.0
  -1.6973495942352972 -1.392903078294974 -1.2121102148607639
  -1.6973510507564917 1.2121085340443012 1.3929057627980699
  1.5695089585623723 1.3886761138120163 -1.3886770438020273
 Fe 
1 
direct
   -0.0000005766442773  -0.0000000146909604  -0.0000003858679169
