
1.0
  -1.5946923482803954 -1.4093677195881267 -1.2993283919818712
  -1.5946960563653676 1.2993257835563314 1.4093723450060205
  1.5168821795441494 1.4068014565342692 -1.4068048346950728
 Fe 
1 
direct
   -0.0000013180440624  -0.0000000335793380  -0.0000008819838100
