
1.0
  -1.7258654958894366 -1.388329566824654 -1.1878829434382343
  -1.7258663269762486 1.1878815202909596 1.3883317121847505
  1.5841275082896566 1.3836412963891682 -1.383641546331737
 Fe 
1 
direct
   -0.0000003706998926  -0.0000000094441888  -0.0000002480579466
