
1.0
  -1.6916464139044693 -1.393817780589038 -1.2169556691452699
  -1.6916479955125407 1.2169539367949695 1.3938205729207338
  1.5665852486169158 1.3896830772965858 -1.3896841432960854
 Fe 
1 
direct
   -0.0000006178331543  -0.0000000157403147  -0.0000004134299110
