
1.0
  -1.5262541843104611 -1.4203441471168947 -1.3574738433959426
  -1.5262593934379514 1.3574706165643513 1.4203500664779878
  1.4817976601986673 1.4188850183491046 -1.4188900286237698
 Fe 
1 
direct
   -0.0000018123105858  -0.0000000461715897  -0.0000012127277388
