
1.0
  -1.651724151588674 -1.4002206966474864 -1.2508738491368117
  -1.6517266088048812 1.250871756049648 1.4002242437793815
  1.5461192789987177 1.3967318216885731 -1.3967338397544922
 Fe 
1 
direct
   -0.0000009061552929  -0.0000000230857948  -0.0000006063638694
