
1.0
  -1.6003955286112235 -1.4084530172940626 -1.2944829376973652
  -1.600399111609319 1.294480380805663 1.4084575348833566
  1.5198058894896063 1.4057944930496997 -1.4057977352010147
 Fe 
1 
direct
   -0.0000012768551855  -0.0000000325299836  -0.0000008544218160
