
1.0
  -1.657427331919502 -1.399305994353422 -1.2460283948523059
  -1.6574296640488324 1.2460263532989797 1.3993094336567176
  1.5490429889441746 1.3957248582040034 -1.395726740260434
 Fe 
1 
direct
   -0.0000008649664160  -0.0000000220364405  -0.0000005788018753
