
1.0
  -1.469222381002182 -1.429491170057535 -1.4059283862410021
  -1.4692288409984375 1.4059246440710347 1.429498167704627
  1.4525605607440988 1.428954653194801 -1.4289610235643506
 Fe 
1 
direct
   -0.0000022241993553  -0.0000000566651328  -0.0000014883476794
