
1.0
  -1.446409659678871 -1.433149979233791 -1.4253102033790261
  -1.4464166200226323 1.4253062550737081 1.4331574081952827
  1.4408657209622717 1.4329825071330795 -1.432989421540583
 Fe 
1 
direct
   -0.0000023889548631  -0.0000000608625500  -0.0000015985956557
