
1.0
  -1.5832859876187395 -1.4111971241762546 -1.3090193005508832
  -1.5832899458774647 1.309016589057668 1.4112019652513486
  1.5110347596532356 1.4088153835034087 -1.4088190336831892
 Fe 
1 
direct
   -0.0000014004218163  -0.0000000356780466  -0.0000009371077982
