
1.0
  -1.47492556133301 -1.428576467763471 -1.4010829319564964
  -1.474931896242389 1.401079241320366 1.428583357581963
  1.4554842706895559 1.4279476897102312 -1.4279539240702925
 Fe 
1 
direct
   -0.0000021830104784  -0.0000000556157785  -0.0000014607856854
