
1.0
  -1.5433637253029446 -1.4176000402347029 -1.3429374805424248
  -1.5433685591698054 1.3429344083123465 1.417605636109996
  1.490568790035038 1.4158641278953958 -1.4158687301415955
 Fe 
1 
direct
   -0.0000016887439550  -0.0000000430235268  -0.0000011300417566
