
1.0
  -1.4635192006713544 -1.4304058723515989 -1.4107738405255081
  -1.4635257857544866 1.4107700468217028 1.430412977827291
  1.4496368507986421 1.4299616166793705 -1.4299681230584087
 Fe 
1 
direct
   -0.0000022653882323  -0.0000000577144871  -0.0000015159096735
