
1.0
  -1.7315686762202647 -1.3874148645305902 -1.1830374891537283
  -1.7315693822202 1.1830361175402915 1.3874169020620863
  1.5870512182351137 1.3826343329045985 -1.3826344468376788
 Fe 
1 
direct
   -0.0000003295110156  -0.0000000083948345  -0.0000002204959525
