
1.0
  -1.6859432335736415 -1.3947324828831023 -1.2218011234297759
  -1.6859449402685893 1.221799339545638 1.394735383043398
  1.5636615386714587 1.3906900407811555 -1.3906912427901437
 Fe 
1 
direct
   -0.0000006590220312  -0.0000000167896690  -0.0000004409919050
