
1.0
  -1.6802400532428134 -1.3956471851771661 -1.2266465777142819
  -1.6802418850246377 1.2266447422963063 1.3956501931660616
  1.5607378287260019 1.391697004265725 -1.3916983422842018
 Fe 
1 
direct
   -0.0000007002109082  -0.0000000178390233  -0.0000004685538991
