
1.0
  -1.748678217212748 -1.3846707576483979 -1.1685011263002105
  -1.7486785479520541 1.1684999092882862 1.3846724716940946
  1.595822348071484 1.3796134424508897 -1.3796131483555047
 Fe 
1 
direct
   -0.0000002059443848  -0.0000000052467716  -0.0000001378099703
