
1.0
  -1.7714909385360595 -1.381011948472142 -1.1491193091621865
  -1.7714907689278596 1.149118298285613 1.3810132312034389
  1.6075171878533112 1.3755855885126114 -1.3755847503792722
 Fe 
1 
direct
   -0.0000000411888770  -0.0000000010493543  -0.0000000275619941
