
1.0
  -1.5547700859646005 -1.4157706356465745 -1.333246571973413
  -1.554774669657708 1.3332436028110095 1.4157760158646682
  1.4964162099259517 1.4138502009262566 -1.4138545311534796
 Fe 
1 
direct
   -0.0000016063662011  -0.0000000409248181  -0.0000010749177685
