
1.0
  -1.6060987089420515 -1.4075383149999983 -1.2896374834128592
  -1.6061021668532705 1.2896349780549947 1.4075427247606929
  1.5227295994350634 1.40478752956513 -1.4047906357069566
 Fe 
1 
direct
   -0.0000012356663085  -0.0000000314806293  -0.0000008268598219
