
1.0
  -1.4407064793480429 -1.434064681527855 -1.430155657663532
  -1.440713564778681 1.4301516578243763 1.4340722183179466
  1.4379420110168148 1.4339894706176488 -1.433996521034641
 Fe 
1 
direct
   -0.0000024301437401  -0.0000000619119044  -0.0000016261576497
