
1.0
  -1.617505069603707 -1.4057089104118705 -1.2799465748438474
  -1.6175082773411729 1.2799441725536578 1.405713104515365
  1.528577019325977 1.402773602595991 -1.4027764367188407
 Fe 
1 
direct
   -0.0000011532885546  -0.0000000293819207  -0.0000007717358338
