
1.0
  -1.5376605449721168 -1.4185147425287667 -1.3477829348269308
  -1.537665503925854 1.3477798110630146 1.41852044623266
  1.4876450800895809 1.4168710913799654 -1.4168758296356536
 Fe 
1 
direct
   -0.0000017299328319  -0.0000000440728811  -0.0000011576037507
