
1.0
  -1.4977382826563215 -1.4249176585872148 -1.3817011148184724
  -1.4977441172181944 1.381697630317693 1.4249241170913074
  1.467179110471383 1.423919835771953 -1.4239255260940602
 Fe 
1 
direct
   -0.0000020182549706  -0.0000000514183612  -0.0000013505377091
