
1.0
  -1.6460209712578466 -1.4011353989415505 -1.2557193034213177
  -1.6460235535609298 1.2557171588003162 1.4011390539020454
  1.543195569053261 1.3977387851731429 -1.3977409392485503
 Fe 
1 
direct
   -0.0000009473441699  -0.0000000241351492  -0.0000006339258635
