
1.0
  -1.435003299017215 -1.4349793838219191 -1.435001111948038
  -1.4350105095347296 1.4349970605750446 1.4349870284406105
  1.435018301071358 1.4349964341022186 -1.4350036205286991
 Fe 
1 
direct
   -0.0000024713326170  -0.0000000629612587  -0.0000016537196438
