
1.0
  -1.520551003979633 -1.4212588494109588 -1.3623192976804488
  -1.520556338194 1.3623160193150197 1.4212648766006517
  1.4788739502532104 1.4198919818336744 -1.419897128117828
 Fe 
1 
direct
   -0.0000018534994628  -0.0000000472209440  -0.0000012402897329
