
1.0
  -1.7429750368819201 -1.3855854599424617 -1.1733465805847163
  -1.7429754927081027 1.1733453120389545 1.3855872818167585
  1.5928986381260268 1.3806204059354592 -1.3806202478495628
 Fe 
1 
direct
   -0.0000002471332617  -0.0000000062961259  -0.0000001653719644
