
1.0
  -1.760084577874404 -1.38284135306027 -1.1588102177311985
  -1.760084658439957 1.1588091037869497 1.3828428514487667
  1.601669767962398 1.3775995154817506 -1.3775989493673884
 Fe 
1 
direct
   -0.0000001235666309  -0.0000000031480629  -0.0000000826859822
