
1.0
  -1.5091446433179774 -1.423088253999087 -1.3720102062494606
  -1.5091502277060973 1.3720068248163562 1.4230944968459796
  1.473026530362297 1.4219059088028134 -1.421911327105944
 Fe 
1 
direct
   -0.0000019358772167  -0.0000000493196526  -0.0000012954137210
