
1.0
  -1.6346146105961905 -1.4029648035296785 -1.2654102119903294
  -1.634617443073027 1.265407964301653 1.402968674147373
  1.5373481491623473 1.3997527121422821 -1.3997551382366662
 Fe 
1 
direct
   -0.0000010297219238  -0.0000000262338578  -0.0000006890498516
