
1.0
  -1.7771941188668876 -1.3800972461780776 -1.1442738548776807
  -1.7771938241718108 1.1442728955349446 1.380098421080775
  1.6104408977987683 1.3745786250280416 -1.3745776508852143
 Fe 
1 
direct
    0.0000000000000000   0.0000000000000000   0.0000000000000000
